 200 94 
 27 66 52 28 5 94 77 23 39 10 40 16 
 24 64 63 99 26 49 12 50 100 63 55 65 
 81 25 5 30 9 30 66 35 43 70 62 20 
 8 33 21 17 62 16 3 53 59 10 96 66 
 55 63 82 85 23 59 33 100 22 87 35 14 
 21 66 40 46 25 54 16 6 80 73 52 23 
 43 77 53 33 75 31 75 67 16 91 92 16 
 49 41 76 54 70 29 86 8 65 37 
 16 
 1 14 23 25 34 36 39 42 57 60 64 67 
 76 85 86 88 
 58 
 1 2 3 4 6 7 8 9 13 14 16 17 
 19 20 21 23 24 25 26 27 32 33 35 36 
 37 38 40 42 44 45 46 47 48 49 50 51 
 52 54 55 56 59 60 62 63 64 67 69 70 
 75 77 78 79 82 88 89 91 92 93 
 41 
 2 3 4 6 12 13 15 16 17 18 21 25 
 27 31 33 34 35 37 38 48 49 52 53 54 
 56 58 59 61 64 68 69 73 75 83 84 85 
 86 87 89 90 91 
 19 
 6 12 16 30 33 36 40 50 53 56 66 67 
 69 71 81 83 91 92 94 
 81 
 1 2 3 4 5 6 8 10 11 12 13 15 
 16 17 18 19 20 22 23 24 25 26 27 28 
 29 30 31 32 33 34 35 36 39 40 41 42 
 44 45 46 48 49 50 51 52 53 54 55 56 
 58 59 60 61 62 63 64 65 66 68 70 72 
 73 74 76 77 78 79 80 81 82 83 84 85 
 86 87 88 89 90 91 92 93 94 
 64 
 3 4 5 6 7 9 10 11 12 15 16 17 
 20 21 22 23 24 25 26 28 29 30 31 32 
 33 34 37 38 39 40 42 43 45 46 47 48 
 50 51 55 56 57 59 60 61 62 63 66 68 
 69 70 74 75 78 80 81 83 84 85 86 87 
 88 90 91 92 
 53 
 3 4 5 6 7 9 13 14 16 18 19 20 
 23 24 28 30 31 32 33 34 37 40 42 43 
 44 46 52 53 54 55 58 59 62 63 66 68 
 69 70 74 75 76 77 80 82 83 84 85 87 
 89 90 91 92 94 
 91 
 2 3 4 5 6 7 8 9 10 11 12 13 
 14 15 16 17 18 19 20 21 22 23 24 25 
 26 27 28 29 30 31 32 33 34 35 36 37 
 38 39 40 41 42 43 44 45 46 47 48 49 
 50 53 54 55 56 57 58 59 60 61 62 63 
 64 65 66 67 68 69 70 71 72 73 74 75 
 76 77 78 79 80 81 82 83 84 85 86 87 
 88 89 90 91 92 93 94 
 45 
 1 2 5 6 7 12 14 17 19 24 26 27 
 28 30 31 33 34 35 36 38 42 45 48 49 
 53 54 58 61 62 65 68 69 70 72 76 77 
 78 79 80 83 86 88 89 91 93 
 49 
 2 3 5 6 8 12 13 15 16 18 22 27 
 30 32 37 40 41 42 44 45 46 48 49 50 
 53 56 57 59 60 63 65 66 68 69 70 71 
 72 74 75 76 78 80 81 83 85 87 89 92 
 93 
 73 
 1 3 5 6 7 8 9 10 11 12 13 15 
 16 17 18 19 20 21 22 23 24 25 26 28 
 29 30 31 32 34 35 37 41 43 44 45 47 
 48 50 51 52 54 55 56 57 58 59 60 61 
 62 63 64 65 66 68 70 72 73 74 76 77 
 78 79 80 82 83 85 86 87 88 89 91 92 
 94 
 42 
 1 2 5 7 9 10 12 13 14 19 20 21 
 22 25 27 35 37 38 42 43 44 45 46 48 
 53 55 56 57 58 61 65 66 69 71 75 78 
 80 83 84 88 89 92 
 21 
 1 3 7 16 19 22 27 28 31 43 45 48 
 51 52 53 54 66 69 83 84 94 
 60 
 1 2 3 4 5 6 7 11 13 15 17 19 
 20 22 23 26 27 31 32 34 36 38 39 40 
 42 43 44 46 47 48 49 50 52 54 55 56 
 61 62 65 68 69 71 72 73 74 75 78 79 
 81 83 84 85 86 87 88 89 91 92 93 94 
 21 
 7 9 22 23 29 33 34 36 39 47 48 54 
 57 63 64 66 67 72 78 79 93 
 27 
 1 4 7 9 12 17 20 22 28 30 35 39 
 40 48 50 51 53 54 59 63 64 77 83 86 
 87 92 94 
 54 
 1 2 5 7 10 11 14 16 18 19 20 23 
 24 25 26 27 29 30 33 34 35 39 41 43 
 45 46 48 49 51 52 53 56 58 60 61 63 
 64 66 69 70 72 73 74 75 77 80 81 82 
 84 85 89 90 91 94 
 63 
 1 2 3 4 5 6 9 10 11 12 13 14 
 16 20 21 24 25 26 28 30 31 34 35 36 
 37 41 42 44 45 46 47 48 50 51 53 54 
 58 61 62 63 64 65 66 67 68 69 70 72 
 73 74 76 77 78 79 80 81 82 84 85 88 
 89 90 91 
 30 
 4 11 13 18 21 22 26 27 33 35 43 50 
 53 54 55 56 57 58 66 67 70 71 75 76 
 77 83 85 87 91 92 
 40 
 1 3 4 5 8 9 10 18 20 23 24 31 
 33 38 39 42 45 49 53 57 58 60 62 63 
 65 66 67 68 71 79 80 81 82 83 84 86 
 89 91 92 94 
 23 
 4 6 17 20 22 24 26 30 32 33 46 55 
 58 61 67 71 73 77 79 81 86 88 90 
 38 
 3 4 5 6 9 10 11 18 22 24 25 28 
 32 36 39 40 46 48 49 50 51 53 64 66 
 68 71 73 77 80 81 83 84 85 87 91 92 
 93 94 
 55 
 3 6 8 9 10 11 12 15 17 19 25 27 
 28 31 32 34 36 37 38 39 40 42 45 47 
 48 49 51 52 55 56 57 59 61 64 65 66 
 67 69 73 74 75 76 77 82 83 84 85 87 
 88 89 90 91 92 93 94 
 93 
 1 2 3 4 5 6 7 8 9 10 11 12 
 13 14 15 16 17 18 19 20 21 22 23 24 
 25 26 27 28 29 30 31 32 33 34 35 36 
 37 38 39 40 41 42 43 44 45 46 47 48 
 49 50 51 52 53 54 55 56 57 58 59 60 
 61 62 63 64 65 66 67 68 69 70 71 72 
 73 74 75 76 77 78 79 80 81 82 84 85 
 86 87 88 89 90 91 92 93 94 
 21 
 3 14 28 29 30 37 43 49 50 59 61 65 
 68 70 73 74 82 83 85 88 89 
 44 
 1 4 5 7 8 9 11 13 14 18 19 20 
 21 22 24 26 32 33 34 36 38 39 45 46 
 48 49 53 58 61 62 64 65 66 68 70 73 
 74 77 79 80 83 85 93 94 
 82 
 1 2 3 4 5 6 8 9 10 11 12 13 
 14 15 16 17 18 19 20 22 23 24 25 26 
 27 28 29 31 32 33 34 35 36 37 38 39 
 40 41 43 44 45 47 48 50 51 52 53 54 
 55 56 57 58 59 60 61 62 64 66 67 68 
 70 71 72 76 77 78 79 80 81 82 83 84 
 85 86 87 88 89 90 91 92 93 94 
 41 
 1 5 19 20 21 32 33 36 37 39 46 47 
 49 52 53 60 61 62 63 66 67 68 69 70 
 71 73 74 75 78 80 81 82 83 87 88 89 
 90 91 92 93 94 
 93 
 1 2 3 4 5 6 7 8 9 10 11 12 
 13 14 15 16 17 18 19 20 21 22 23 24 
 25 27 28 29 30 31 32 33 34 35 36 37 
 38 39 40 41 42 43 44 45 46 47 48 49 
 50 51 52 53 54 55 56 57 58 59 60 61 
 62 63 64 65 66 67 68 69 70 71 72 73 
 74 75 76 77 78 79 80 81 82 83 84 85 
 86 87 88 89 90 91 92 93 94 
 26 
 1 7 22 26 30 32 38 42 45 46 47 48 
 50 58 65 67 70 71 73 74 77 80 83 86 
 91 92 
 42 
 2 4 5 6 10 13 14 19 20 25 26 28 
 29 31 33 36 37 38 39 43 45 46 47 51 
 53 54 55 60 63 71 72 75 76 77 78 80 
 82 83 85 91 92 93 
 75 
 1 2 3 4 5 6 7 8 10 11 12 13 
 14 15 18 19 20 21 23 24 25 28 29 30 
 31 32 33 34 35 36 37 40 41 43 44 45 
 47 48 49 50 51 53 54 55 56 57 58 59 
 60 61 62 63 65 66 67 68 69 70 72 73 
 74 76 78 80 81 82 83 84 85 86 88 91 
 92 93 94 
 84 
 1 2 3 4 5 6 8 9 11 12 13 14 
 15 16 17 18 19 20 21 22 23 24 26 27 
 28 29 30 31 32 33 34 35 36 37 38 39 
 40 41 42 43 44 45 46 47 49 50 51 53 
 55 56 57 58 59 60 61 62 63 64 65 66 
 67 69 70 71 72 73 74 75 76 77 79 80 
 81 83 84 85 86 88 89 90 91 92 93 94 
 57 
 3 6 7 8 14 17 18 21 23 24 26 27 
 29 31 32 33 34 35 38 39 40 41 43 45 
 46 47 48 49 51 54 57 60 62 63 64 65 
 66 68 69 70 71 74 75 76 77 80 81 83 
 84 85 86 87 88 90 92 93 94 
 62 
 3 5 6 7 9 10 11 12 15 16 18 19 
 21 22 24 25 27 29 30 31 35 36 37 38 
 39 41 43 44 46 47 48 49 52 53 55 57 
 58 61 62 63 64 65 67 68 69 70 71 72 
 73 75 76 77 78 79 81 84 85 87 89 90 
 91 93 
 78 
 1 3 4 5 6 7 8 9 10 12 13 14 
 15 16 17 18 19 21 23 24 25 26 27 28 
 29 31 33 34 35 36 37 38 39 41 44 47 
 48 50 51 52 53 54 55 56 57 58 59 60 
 61 62 63 64 65 66 67 68 69 70 71 73 
 74 75 76 77 78 80 81 82 83 84 85 86 
 89 90 91 92 93 94 
 69 
 1 2 4 5 8 9 10 11 12 13 16 17 
 19 20 21 22 23 26 28 29 30 33 34 35 
 38 39 40 41 42 43 44 45 46 47 48 49 
 50 52 53 54 56 57 58 60 62 64 65 66 
 67 68 69 70 72 74 75 76 77 78 80 83 
 84 85 86 88 89 91 92 93 94 
 67 
 1 3 4 5 6 7 9 11 13 15 17 18 
 19 21 22 23 25 27 28 29 30 31 32 33 
 34 35 36 37 39 41 42 43 45 47 50 51 
 52 53 55 56 57 60 62 63 64 65 66 67 
 68 69 70 71 73 74 77 78 79 80 81 84 
 87 88 90 91 92 93 94 
 15 
 1 8 20 25 27 34 36 44 59 60 66 67 
 69 80 91 
 78 
 1 3 4 7 8 9 10 13 14 15 16 17 
 20 21 23 24 25 27 28 29 30 32 33 34 
 35 37 38 39 40 41 42 43 44 45 46 47 
 48 49 51 52 53 54 55 57 58 59 60 61 
 62 63 64 67 68 69 70 71 72 73 74 75 
 76 77 78 79 80 81 83 84 85 86 87 88 
 89 90 91 92 93 94 
 51 
 2 5 6 8 9 14 15 18 19 21 22 23 
 24 26 31 32 33 34 36 43 46 47 48 50 
 51 52 53 54 56 61 62 63 67 70 71 73 
 76 79 80 81 82 83 85 87 88 89 90 91 
 92 93 94 
 4 
 7 8 39 76 
 37 
 3 6 8 10 11 14 22 25 27 28 31 33 
 34 36 40 41 43 44 50 52 55 56 63 67 
 68 70 73 74 76 77 80 82 83 88 90 91 
 92 
 30 
 8 9 12 13 16 19 21 22 28 29 32 36 
 39 40 46 49 51 56 59 61 63 68 71 72 
 75 79 80 82 85 87 
 82 
 1 2 3 4 5 6 7 8 9 10 11 12 
 13 15 16 17 18 19 20 21 22 23 24 25 
 26 27 28 29 30 31 32 33 34 35 36 38 
 39 40 41 42 43 44 46 47 48 49 50 51 
 52 53 54 55 56 57 58 59 60 63 64 66 
 67 69 71 72 73 74 75 76 77 78 81 82 
 83 84 85 86 87 88 89 92 93 94 
 60 
 2 5 6 8 10 13 15 17 18 22 23 24 
 25 27 28 30 31 32 33 35 36 38 39 41 
 42 43 45 46 47 48 49 51 53 55 56 57 
 58 59 60 61 64 66 70 71 72 73 74 77 
 78 79 83 84 85 86 87 88 89 90 91 93 
 59 
 1 2 3 4 7 9 10 13 14 17 18 19 
 20 21 23 26 27 28 29 30 31 33 34 37 
 38 39 42 43 49 50 51 52 53 55 58 59 
 60 61 65 67 68 69 70 72 73 74 75 77 
 78 79 81 83 84 86 87 88 90 93 94 
 90 
 1 2 4 5 6 7 8 9 10 11 12 13 
 14 15 16 17 18 19 20 21 22 23 24 25 
 26 27 28 30 31 32 33 34 35 36 37 38 
 39 40 41 42 43 44 45 46 47 48 50 51 
 52 53 54 55 56 58 59 60 61 62 63 64 
 65 66 67 68 69 70 71 72 73 74 75 76 
 77 78 79 80 81 82 83 84 85 86 87 88 
 89 90 91 92 93 94 
 26 
 3 11 17 23 26 27 31 33 36 38 39 46 
 47 50 52 53 57 58 69 71 76 77 78 80 
 81 92 
 2 
 10 84 
 30 
 2 6 12 14 17 24 25 29 30 34 37 38 
 40 46 47 49 52 54 68 70 74 75 80 82 
 83 84 85 86 88 94 
 5 
 11 44 51 69 76 
 13 
 8 14 19 27 34 39 41 56 58 60 73 78 
 91 
 4 
 24 47 54 56 
 12 
 2 4 13 16 26 39 41 56 66 68 80 92 
 26 
 7 8 13 18 26 27 32 39 40 41 59 63 
 67 68 71 72 73 74 76 78 83 84 85 86 
 90 94 
 88 
 1 2 3 4 5 6 7 8 9 10 11 12 
 13 14 15 16 17 18 20 21 22 23 24 25 
 26 27 28 29 31 32 33 34 35 36 37 39 
 40 41 42 43 44 46 47 48 49 50 51 52 
 53 54 55 56 57 58 59 60 61 63 64 65 
 66 67 68 69 70 71 72 73 74 75 76 78 
 79 80 81 82 83 84 85 86 87 88 89 90 
 91 92 93 94 
 74 
 1 2 4 5 6 7 8 9 12 14 16 17 
 18 19 21 23 24 25 26 27 28 29 30 31 
 34 35 36 37 38 39 40 42 43 44 45 47 
 48 49 50 51 52 53 54 55 57 58 59 60 
 61 62 63 64 65 66 67 68 69 70 71 72 
 73 74 75 76 78 81 82 83 84 86 87 90 
 93 94 
 80 
 1 2 3 4 5 6 7 8 9 10 11 12 
 14 16 17 18 19 21 22 23 24 25 26 28 
 29 30 32 33 34 35 36 38 39 40 41 42 
 43 45 46 47 48 49 50 53 54 55 56 57 
 59 60 61 62 63 64 66 67 68 69 70 71 
 72 73 74 75 76 77 78 80 82 83 84 85 
 86 88 89 90 91 92 93 94 
 73 
 1 2 3 4 5 6 7 9 10 11 12 13 
 14 16 18 19 20 21 22 23 24 26 27 32 
 34 35 36 37 39 40 41 43 44 45 46 47 
 49 52 54 55 56 57 58 59 60 61 63 64 
 65 66 67 68 69 70 71 72 73 74 77 78 
 79 80 81 83 84 86 87 88 89 90 92 93 
 94 
 25 
 2 3 10 11 13 17 22 29 31 33 35 39 
 45 49 51 55 61 62 68 74 77 83 85 86 
 90 
 51 
 2 3 8 10 12 13 15 16 17 18 19 21 
 22 23 24 25 26 27 28 35 38 39 44 45 
 49 50 52 58 61 62 63 64 65 66 67 69 
 71 73 75 76 77 79 80 81 83 84 87 88 
 89 90 93 
 82 
 1 2 3 4 5 6 7 8 9 10 11 13 
 14 15 16 17 19 20 22 23 24 26 27 28 
 29 30 31 32 33 35 36 37 38 39 40 41 
 42 43 44 45 46 47 48 49 50 51 52 53 
 54 56 57 58 59 60 61 62 63 64 65 66 
 67 68 69 70 72 73 74 75 77 78 79 81 
 82 83 85 87 88 89 90 91 92 94 
 88 
 1 2 3 4 5 7 8 9 10 11 12 13 
 14 15 16 17 18 19 20 21 22 23 24 25 
 26 27 28 30 31 32 33 34 35 36 37 38 
 40 41 42 43 44 45 46 47 48 49 50 51 
 52 53 54 55 56 57 58 59 60 61 62 63 
 64 65 67 68 69 70 71 72 73 74 75 76 
 77 78 79 80 81 82 83 85 86 87 88 89 
 90 92 93 94 
 12 
 8 9 13 23 25 32 33 45 64 65 75 78 
 55 
 1 3 4 5 6 8 11 12 13 16 18 19 
 22 24 26 29 31 32 34 35 36 37 39 41 
 42 45 48 49 51 52 53 56 58 60 62 63 
 65 66 67 72 74 76 77 78 80 82 83 84 
 85 86 87 88 91 92 93 
 92 
 1 2 3 4 5 6 7 8 9 10 11 12 
 13 14 15 17 18 19 20 21 22 23 24 25 
 26 27 28 29 30 31 32 33 34 35 36 37 
 38 39 40 41 42 43 44 45 47 48 49 50 
 51 52 53 54 55 56 57 58 59 60 61 62 
 63 64 65 66 67 68 69 70 71 72 73 74 
 75 76 77 78 79 80 81 82 83 84 85 86 
 87 88 89 90 91 92 93 94 
 62 
 1 4 6 7 8 9 10 11 12 15 16 17 
 18 21 22 23 24 27 28 29 31 32 35 36 
 38 39 40 41 42 43 44 47 49 50 52 53 
 54 56 59 61 62 63 65 67 68 69 70 75 
 76 78 79 80 81 82 84 85 86 88 89 92 
 93 94 
 58 
 1 2 3 4 5 9 12 14 15 17 18 19 
 21 24 28 29 30 31 32 34 35 37 38 39 
 43 44 45 47 48 49 52 54 56 58 61 64 
 66 67 68 69 73 74 75 76 79 80 81 82 
 83 84 85 86 87 88 89 90 91 94 
 78 
 1 2 3 4 5 6 7 8 11 12 13 14 
 15 16 17 18 19 20 21 23 24 26 27 28 
 29 30 31 32 33 34 35 38 39 40 42 43 
 44 45 46 47 49 50 52 53 54 55 56 58 
 59 60 61 62 64 65 67 68 70 72 73 74 
 75 76 77 78 79 80 81 82 83 84 85 87 
 88 89 90 91 92 93 
 35 
 2 3 4 7 11 12 13 17 27 29 31 32 
 35 37 38 40 43 45 47 50 52 55 57 61 
 62 66 69 77 81 85 87 88 90 91 94 
 34 
 1 6 13 16 17 19 25 26 31 34 35 36 
 38 39 41 50 56 62 63 64 65 70 71 75 
 78 79 80 82 83 85 86 87 89 91 
 46 
 3 4 5 9 11 13 15 18 22 23 25 26 
 28 30 32 33 34 36 40 42 46 47 50 53 
 54 55 57 58 62 63 66 67 69 70 71 72 
 73 74 75 76 77 81 84 88 91 94 
 75 
 1 3 4 5 6 7 8 9 10 11 12 13 
 15 16 17 20 21 23 24 25 26 27 28 29 
 30 32 33 34 35 36 37 38 39 41 42 43 
 44 47 48 49 51 53 54 55 56 57 58 59 
 62 63 65 66 67 69 71 72 73 74 75 77 
 79 80 81 82 84 85 86 87 88 89 90 91 
 92 93 94 
 52 
 2 4 6 7 8 10 12 13 14 16 17 18 
 20 23 26 31 33 34 35 36 40 42 43 45 
 49 50 52 54 55 56 59 60 61 62 64 65 
 66 69 72 73 74 75 76 77 82 83 85 88 
 89 90 92 93 
 60 
 2 3 6 7 10 11 14 15 16 17 19 21 
 23 24 25 26 27 28 30 31 32 36 38 39 
 40 41 43 45 47 49 50 51 52 56 58 61 
 62 63 64 65 66 68 69 70 71 75 76 77 
 78 79 80 82 83 84 86 89 91 92 93 94 
 82 
 1 2 3 4 5 7 8 9 10 11 12 13 
 14 15 16 17 18 20 22 23 24 25 26 27 
 28 29 30 31 32 33 34 35 36 38 39 40 
 41 42 43 44 46 47 49 50 51 53 54 55 
 58 59 60 61 62 63 64 65 66 67 68 70 
 71 72 73 74 75 76 77 78 79 80 81 82 
 83 85 86 87 88 89 90 92 93 94 
 66 
 1 2 3 4 6 7 8 9 12 16 17 19 
 21 23 24 25 27 28 30 31 32 33 34 35 
 36 38 40 41 42 43 44 46 47 48 49 50 
 53 54 55 56 57 58 59 60 62 66 68 69 
 70 71 72 73 75 76 77 78 80 82 83 84 
 86 87 88 90 92 93 
 64 
 1 3 5 7 8 9 11 15 16 17 18 19 
 20 23 24 25 26 27 28 29 30 31 32 34 
 35 36 37 40 41 42 44 45 46 47 50 54 
 55 56 57 58 59 64 65 68 69 72 73 74 
 75 76 77 78 79 81 82 84 85 86 87 89 
 91 92 93 94 
 55 
 1 2 3 5 6 9 11 12 14 15 16 17 
 20 21 24 25 26 29 30 32 33 38 39 41 
 43 45 46 48 50 55 56 59 61 62 63 64 
 65 67 69 72 73 74 75 76 78 79 80 81 
 82 83 84 85 90 91 94 
 53 
 1 2 3 4 6 10 12 13 14 15 16 17 
 18 19 20 21 26 31 32 33 39 40 41 42 
 43 46 48 49 50 52 53 54 55 56 57 58 
 59 63 64 65 66 67 69 72 73 74 76 77 
 79 84 90 93 94 
 55 
 1 2 7 10 11 12 13 15 18 23 24 25 
 27 28 29 31 32 33 35 36 37 39 41 42 
 43 44 47 48 49 50 51 52 53 54 56 57 
 60 61 62 66 68 69 72 73 74 75 76 77 
 79 82 84 87 88 90 91 
 66 
 1 4 5 7 8 9 10 11 12 13 14 17 
 18 19 20 23 24 25 26 29 30 34 36 40 
 41 42 43 46 48 49 50 51 53 54 55 56 
 57 58 59 60 61 62 63 64 65 66 69 70 
 71 73 74 75 77 78 79 80 81 82 85 86 
 87 89 90 92 93 94 
 6 
 9 36 57 59 69 79 
 93 
 1 2 3 4 5 6 7 8 9 10 11 12 
 13 14 15 16 17 18 19 20 21 22 23 24 
 25 27 28 29 30 31 32 33 34 35 36 37 
 38 39 40 41 42 43 44 45 46 47 48 49 
 50 51 52 53 54 55 56 57 58 59 60 61 
 62 63 64 65 66 67 68 69 70 71 72 73 
 74 75 76 77 78 79 80 81 82 83 84 85 
 86 87 88 89 90 91 92 93 94 
 92 
 1 2 3 4 5 6 7 8 9 10 11 12 
 13 14 16 17 18 19 20 21 22 23 24 25 
 26 27 28 29 30 31 32 33 34 35 36 37 
 38 39 40 41 42 43 44 45 46 47 48 49 
 50 51 52 53 54 55 56 57 58 59 60 61 
 62 63 64 65 66 67 68 69 70 71 72 73 
 74 75 76 77 78 79 80 81 82 83 84 86 
 87 88 89 90 91 92 93 94 
 92 
 1 2 3 4 5 6 7 8 9 10 11 12 
 13 14 15 16 17 18 19 20 21 22 23 24 
 25 26 27 28 29 30 31 32 33 34 35 36 
 37 38 39 40 41 42 43 44 45 46 47 48 
 50 51 52 53 54 55 56 57 58 59 60 61 
 62 63 64 66 67 68 69 70 71 72 73 74 
 75 76 77 78 79 80 81 82 83 84 85 86 
 87 88 89 90 91 92 93 94 
 78 
 2 3 4 6 7 8 9 11 12 14 15 17 
 19 20 23 24 25 26 27 29 30 31 32 34 
 35 36 37 38 39 40 41 42 43 44 45 47 
 48 49 50 52 53 54 55 56 57 59 60 61 
 62 64 65 67 68 69 70 71 72 73 74 75 
 76 77 79 80 81 82 83 84 85 86 87 88 
 89 90 91 92 93 94 
 66 
 1 2 3 5 6 8 10 12 13 15 16 17 
 18 20 21 22 24 25 27 28 30 31 32 33 
 34 35 36 38 39 40 44 46 48 49 50 51 
 52 53 54 56 57 59 60 61 62 63 64 67 
 68 69 71 73 78 79 80 81 82 83 84 85 
 86 87 88 89 91 92 
 14 
 7 17 21 38 41 51 56 62 63 65 66 70 
 80 87 
 75 
 1 2 3 5 6 7 8 9 10 11 12 14 
 16 17 18 19 21 22 23 24 25 26 27 28 
 30 31 35 40 41 42 43 44 45 46 47 48 
 49 50 51 52 53 54 55 56 58 59 60 61 
 62 63 64 65 66 68 69 70 71 73 74 75 
 76 77 78 79 81 82 83 84 85 86 87 90 
 91 92 94 
 35 
 1 2 4 6 7 8 11 15 16 17 18 21 
 24 26 32 33 38 41 42 43 46 53 56 58 
 60 61 66 73 75 78 79 80 81 89 90 
 45 
 2 5 7 8 10 13 16 20 22 24 25 27 
 28 29 30 32 34 36 38 39 46 48 50 52 
 53 55 56 57 58 59 61 62 65 67 70 73 
 74 75 76 80 82 85 86 88 90 
 48 
 1 2 5 10 12 13 20 22 24 25 26 27 
 32 33 38 39 40 43 46 47 48 49 50 51 
 54 56 58 61 66 67 68 70 71 74 75 76 
 78 79 80 81 83 85 86 87 88 89 92 93 
 66 
 1 3 5 6 7 8 9 10 11 13 15 17 
 18 19 20 21 24 25 27 28 31 32 34 37 
 38 40 41 43 44 46 47 48 49 50 51 52 
 53 54 55 56 57 58 61 63 64 65 66 67 
 68 71 73 74 75 77 78 79 80 82 83 84 
 87 88 90 91 92 93 
 67 
 1 2 3 4 5 8 9 10 11 12 13 15 
 16 17 19 20 21 25 27 28 29 31 32 33 
 34 37 38 40 41 42 45 46 47 48 49 50 
 51 54 55 56 57 58 59 60 61 62 63 64 
 66 67 69 70 71 72 73 75 76 80 81 82 
 84 88 90 91 92 93 94 
 42 
 2 4 6 8 9 15 16 17 20 22 24 27 
 32 35 36 37 43 45 46 50 51 52 53 58 
 59 60 62 63 67 69 70 71 73 75 76 79 
 80 81 85 86 92 94 
 50 
 3 6 7 10 11 12 14 15 16 19 22 23 
 24 26 27 32 33 34 35 40 41 42 44 45 
 46 47 51 52 53 54 56 62 63 66 67 70 
 71 72 73 75 81 82 83 84 85 87 88 90 
 92 94 
 84 
 1 3 4 5 6 7 8 9 10 11 12 13 
 14 15 17 18 20 21 23 24 25 26 28 30 
 31 32 33 34 35 37 38 39 41 42 43 44 
 45 46 47 48 49 50 51 52 53 54 55 56 
 57 58 59 60 61 62 63 64 65 66 67 68 
 69 70 71 72 73 75 77 78 79 80 81 82 
 83 84 85 86 87 88 89 90 91 92 93 94 
 73 
 3 4 7 9 10 11 12 13 14 15 16 17 
 19 21 22 23 25 26 27 28 29 31 32 34 
 35 37 38 39 42 43 44 45 46 49 51 52 
 53 54 55 56 57 59 60 61 62 63 64 65 
 66 67 68 69 70 71 72 73 74 75 76 77 
 79 81 82 83 84 85 86 87 88 89 90 91 
 92 
 48 
 2 5 6 7 10 11 12 14 15 16 18 19 
 20 21 22 23 24 27 28 29 30 32 36 38 
 41 45 46 49 51 58 59 62 63 65 66 67 
 69 70 71 72 74 79 80 83 85 90 91 94 
 61 
 3 4 8 9 10 11 13 14 15 17 18 19 
 21 25 26 28 29 30 33 34 36 37 38 40 
 41 42 44 48 49 50 51 54 56 57 60 61 
 63 64 65 66 67 68 70 72 73 74 77 78 
 79 80 81 83 85 86 87 88 90 91 92 93 
 94 
 36 
 1 2 3 4 5 7 8 9 20 22 24 33 
 35 36 44 47 51 53 55 58 61 62 63 64 
 65 66 71 73 82 83 87 89 90 92 93 94 
 81 
 1 2 3 4 6 7 8 10 11 12 13 14 
 16 17 18 19 20 21 22 23 24 25 27 29 
 32 33 34 35 36 37 38 40 41 42 43 44 
 46 47 48 49 50 51 52 53 54 55 56 57 
 58 59 61 62 63 64 65 66 67 68 69 70 
 71 72 74 75 76 77 78 79 81 82 83 85 
 86 87 88 89 90 91 92 93 94 
 81 
 2 3 4 6 8 9 10 11 12 13 14 15 
 16 17 18 19 20 21 22 23 24 25 27 28 
 29 30 31 32 33 34 35 36 37 38 39 40 
 41 42 43 44 45 48 49 50 51 53 54 55 
 56 57 59 60 61 62 63 64 66 67 68 69 
 71 72 73 74 75 76 77 79 80 81 83 84 
 85 86 88 89 90 91 92 93 94 
 32 
 1 3 6 7 9 12 16 21 26 30 31 32 
 36 41 43 48 51 55 56 59 60 62 70 76 
 77 78 81 84 87 89 91 94 
 62 
 1 2 3 5 6 7 9 11 13 18 19 21 
 23 24 25 26 27 28 29 31 34 36 38 40 
 41 42 45 46 47 48 49 52 53 54 55 57 
 59 60 61 62 63 64 66 67 68 70 72 73 
 74 75 76 79 81 82 83 84 85 86 87 89 
 91 92 
 42 
 1 5 6 7 9 10 11 13 15 16 17 22 
 23 28 30 33 34 36 38 39 40 43 45 47 
 50 59 62 67 69 70 74 75 79 80 84 85 
 86 87 89 90 91 92 
 21 
 1 5 8 12 14 24 27 34 37 43 45 50 
 53 56 57 58 70 75 82 89 93 
 26 
 4 10 11 12 14 15 16 19 20 39 40 45 
 50 53 57 62 63 67 71 77 82 84 86 88 
 91 92 
 86 
 1 2 3 4 5 6 7 9 11 12 14 15 
 16 17 18 19 20 21 22 23 25 26 27 28 
 29 30 31 33 34 35 36 37 38 39 40 41 
 43 44 45 46 47 48 50 51 52 53 54 56 
 57 58 59 60 61 62 63 64 65 66 67 68 
 69 70 71 72 73 74 75 76 77 78 79 80 
 81 82 83 84 85 86 87 88 89 90 91 92 
 93 94 
 18 
 3 6 7 8 25 31 35 36 37 42 46 49 
 70 71 72 77 81 83 
 58 
 1 2 3 4 5 6 8 9 11 12 14 16 
 17 19 22 23 24 25 27 28 32 37 40 43 
 44 46 47 49 51 52 53 56 58 59 61 62 
 63 64 65 66 67 70 71 72 73 74 75 76 
 78 79 80 81 82 83 85 89 90 94 
 16 
 5 17 33 42 48 50 57 60 65 66 79 81 
 83 86 91 93 
 88 
 1 2 3 4 6 7 9 10 11 12 13 14 
 15 16 17 18 19 20 22 23 24 25 27 28 
 29 30 31 32 33 34 35 36 37 38 39 40 
 41 42 43 44 45 46 47 48 49 50 51 52 
 53 54 55 56 57 58 59 60 61 62 63 64 
 65 67 68 69 70 71 72 73 74 75 76 77 
 78 79 80 81 82 83 84 85 86 87 88 89 
 90 92 93 94 
 44 
 1 2 4 7 11 13 14 16 19 20 21 22 
 25 26 27 31 32 33 36 37 39 42 43 44 
 45 46 49 50 52 56 60 64 66 69 72 74 
 78 79 80 82 83 85 93 94 
 11 
 11 12 24 26 31 40 45 48 58 59 84 
 66 
 2 3 4 5 7 8 10 11 13 14 15 16 
 17 18 19 20 21 24 26 28 29 30 31 32 
 33 34 35 36 37 38 40 41 42 43 44 46 
 47 48 49 50 51 52 57 58 59 60 61 62 
 67 68 69 70 71 73 76 78 79 84 85 86 
 87 88 90 91 92 94 
 75 
 1 2 3 4 5 6 7 9 10 11 12 13 
 14 16 17 20 21 22 23 24 25 26 27 28 
 29 30 31 33 34 35 36 37 38 39 40 41 
 42 43 44 46 48 49 50 51 53 54 55 57 
 58 59 60 61 62 63 64 65 66 67 70 71 
 73 74 78 80 81 82 83 85 86 87 88 89 
 90 92 94 
 63 
 1 4 5 6 7 8 12 14 16 17 18 21 
 22 24 25 27 28 30 32 34 35 36 37 39 
 40 41 42 43 44 45 46 47 50 53 54 55 
 57 60 61 62 64 65 67 69 70 71 73 74 
 75 76 78 79 80 85 86 87 88 89 90 91 
 92 93 94 
 27 
 4 15 16 20 21 22 23 24 32 40 41 49 
 56 64 66 68 71 74 76 77 83 88 89 90 
 91 92 94 
 34 
 3 7 8 10 11 12 18 19 23 27 31 32 
 37 38 39 42 48 52 53 54 56 58 64 68 
 69 72 74 75 77 78 81 83 91 94 
 18 
 2 8 13 15 26 27 29 38 40 46 51 55 
 65 66 67 83 85 89 
 51 
 3 7 11 15 18 20 22 25 26 27 30 31 
 33 34 35 38 41 44 45 46 49 50 51 53 
 57 60 61 63 65 66 68 69 70 72 73 74 
 75 76 77 78 79 80 81 84 85 87 88 89 
 90 91 92 
 12 
 6 10 16 17 21 38 49 50 65 76 77 81 
 15 
 4 8 10 16 20 21 30 35 39 40 41 44 
 63 65 78 
 66 
 3 5 7 8 9 12 13 14 15 16 17 20 
 21 22 23 24 25 26 27 28 29 30 31 32 
 33 34 35 36 37 38 39 40 42 45 46 47 
 52 53 54 55 56 57 58 60 61 62 64 66 
 67 69 70 71 72 73 76 77 80 81 82 83 
 84 87 88 90 92 94 
 89 
 1 2 3 4 5 6 7 8 9 10 11 12 
 13 14 15 16 17 18 19 20 21 22 23 24 
 25 27 28 29 30 31 32 33 34 35 36 37 
 38 39 40 41 42 43 44 45 46 47 48 49 
 50 53 54 55 56 57 58 59 60 61 62 63 
 64 65 66 67 68 69 70 71 72 73 74 75 
 76 77 78 79 80 81 83 84 85 86 87 88 
 90 91 92 93 94 
 83 
 2 3 4 5 7 8 9 10 11 12 14 16 
 17 18 19 20 21 22 23 24 25 26 28 29 
 30 31 32 33 34 35 36 37 38 39 40 42 
 43 46 47 48 49 50 51 52 53 54 55 56 
 57 59 60 61 62 63 64 65 66 67 68 69 
 71 72 73 74 75 76 77 78 79 80 81 82 
 83 84 85 86 87 88 89 90 91 92 94 
 25 
 4 5 15 16 19 20 23 24 26 27 29 32 
 34 36 39 42 44 49 60 64 69 75 81 85 
 90 
 90 
 1 2 4 5 6 7 8 9 10 11 12 13 
 14 15 16 17 18 19 20 21 22 23 24 25 
 26 27 28 29 30 31 32 33 34 36 37 38 
 39 40 41 42 43 44 45 46 47 48 49 50 
 51 52 53 54 55 56 57 58 59 60 61 62 
 63 64 65 66 67 68 69 70 71 72 73 74 
 75 76 77 78 79 80 81 82 83 84 85 87 
 88 90 91 92 93 94 
 51 
 1 2 6 7 8 9 13 15 17 19 20 22 
 23 24 25 26 27 28 30 32 39 41 42 44 
 46 47 52 53 54 56 57 60 62 63 65 67 
 68 71 73 75 78 80 81 82 84 85 86 89 
 91 92 94 
 17 
 12 18 19 27 30 32 35 39 56 60 65 66 
 73 75 76 85 90 
 46 
 1 4 6 7 8 9 10 14 15 18 22 23 
 24 32 33 35 37 39 40 41 43 44 46 49 
 50 53 54 55 59 63 64 66 67 68 72 75 
 79 80 81 83 84 85 86 89 92 93 
 5 
 5 21 32 60 93 
 72 
 1 2 4 5 6 8 9 10 11 12 13 14 
 15 16 18 19 20 23 24 25 27 29 30 31 
 32 33 34 35 37 38 39 40 41 42 43 44 
 45 46 47 49 52 53 56 57 59 60 61 62 
 63 64 65 67 69 70 71 74 75 76 77 78 
 79 80 82 83 84 85 86 87 88 89 90 94 
 77 
 2 3 4 6 8 9 11 12 14 15 16 18 
 19 20 21 22 23 24 26 27 28 29 30 31 
 33 34 35 36 37 38 39 40 41 42 43 44 
 45 46 47 48 49 50 52 53 54 55 57 58 
 59 60 63 64 65 66 67 68 69 70 71 72 
 73 74 75 76 77 79 81 83 84 85 88 89 
 90 91 92 93 94 
 8 
 5 16 21 41 43 62 81 83 
 80 
 1 2 3 4 5 6 8 9 10 11 12 13 
 14 15 16 17 18 19 20 22 23 24 26 27 
 28 29 30 33 34 35 36 38 39 40 41 43 
 45 46 47 49 50 51 54 56 57 58 59 60 
 61 62 63 64 65 66 67 68 69 70 71 72 
 73 74 75 76 77 78 79 80 81 82 83 84 
 85 86 87 88 89 91 93 94 
 4 
 28 35 48 73 
 93 
 1 2 3 4 5 6 7 8 9 10 11 12 
 13 14 15 16 17 18 19 20 21 22 23 24 
 25 26 27 28 29 30 31 32 33 34 35 36 
 37 38 39 40 41 42 43 44 45 46 47 48 
 49 50 51 52 53 54 55 56 57 58 59 60 
 61 62 63 64 65 66 67 68 69 70 72 73 
 74 75 76 77 78 79 80 81 82 83 84 85 
 86 87 88 89 90 91 92 93 94 
 27 
 13 16 19 20 21 23 29 30 32 39 45 48 
 49 58 64 65 66 68 69 71 74 77 80 81 
 83 89 94 
 15 
 1 13 14 21 29 32 42 49 52 56 58 71 
 84 89 90 
 59 
 1 2 5 7 8 9 10 11 13 14 15 17 
 19 20 21 22 23 25 28 32 33 34 39 40 
 44 45 46 48 49 51 52 53 54 55 56 58 
 60 61 64 65 66 68 70 75 76 78 79 80 
 81 83 84 85 86 88 89 90 91 92 94 
 92 
 1 2 3 4 5 6 7 8 9 10 11 12 
 13 14 15 16 17 18 19 20 21 22 23 24 
 25 26 27 28 29 30 31 32 33 34 35 36 
 37 38 39 40 42 43 44 45 46 47 48 49 
 50 51 52 53 54 55 56 57 58 59 60 61 
 62 63 64 65 66 67 68 69 70 71 72 73 
 74 75 76 77 78 79 80 81 83 84 85 86 
 87 88 89 90 91 92 93 94 
 65 
 1 2 3 4 5 6 7 9 14 15 16 17 
 19 21 22 23 24 25 27 29 30 31 33 34 
 35 36 37 38 39 41 43 44 45 46 50 51 
 53 55 56 58 59 60 61 62 63 64 65 67 
 68 69 70 72 73 74 75 76 80 82 84 85 
 86 91 92 93 94 
 80 
 1 2 3 4 5 6 7 8 9 10 11 13 
 14 17 18 19 20 21 22 23 24 26 27 28 
 29 30 31 32 33 34 35 37 38 39 41 42 
 43 44 45 46 47 48 49 50 51 53 56 57 
 58 59 60 61 62 63 64 65 66 67 68 69 
 71 72 73 74 75 76 78 79 80 81 82 84 
 85 87 88 89 90 91 92 94 
 81 
 1 2 3 4 5 6 7 8 9 10 11 12 
 13 14 15 17 18 19 20 21 23 25 26 28 
 30 31 32 33 34 35 36 37 38 40 42 43 
 44 45 46 47 48 49 50 51 52 53 54 55 
 56 57 58 59 60 61 62 63 64 65 66 67 
 68 69 70 71 73 74 75 76 77 78 79 81 
 82 83 85 86 89 90 92 93 94 
 39 
 6 8 9 13 15 17 18 19 23 26 27 28 
 30 32 33 37 40 41 42 47 54 57 59 60 
 61 63 68 71 72 75 77 78 79 80 82 84 
 87 91 92 
 35 
 1 2 7 8 9 16 17 21 27 29 31 32 
 36 40 43 44 47 49 50 53 54 57 58 59 
 60 61 62 67 68 72 74 87 88 91 92 
 77 
 1 3 4 5 6 7 8 9 11 12 14 15 
 16 18 19 21 22 23 24 25 26 27 28 29 
 32 33 35 36 38 39 40 41 42 43 44 45 
 46 47 48 49 50 51 53 54 55 56 57 58 
 60 62 64 65 68 69 70 71 72 73 74 75 
 76 77 78 79 80 81 82 84 85 86 87 88 
 90 91 92 93 94 
 76 
 1 2 3 4 6 8 9 10 12 14 15 17 
 18 19 20 21 22 23 24 27 28 29 30 31 
 33 34 35 36 37 38 39 40 41 42 44 46 
 47 48 49 50 51 53 55 56 57 58 59 60 
 61 62 63 64 65 66 67 68 69 70 71 72 
 73 74 76 78 79 80 81 82 84 86 88 89 
 91 92 93 94 
 42 
 1 2 3 4 5 6 7 10 14 15 16 17 
 21 23 27 29 30 31 32 38 41 44 49 51 
 52 55 63 64 67 68 70 71 72 74 79 80 
 82 83 89 90 92 93 
 94 
 1 2 3 4 5 6 7 8 9 10 11 12 
 13 14 15 16 17 18 19 20 21 22 23 24 
 25 26 27 28 29 30 31 32 33 34 35 36 
 37 38 39 40 41 42 43 44 45 46 47 48 
 49 50 51 52 53 54 55 56 57 58 59 60 
 61 62 63 64 65 66 67 68 69 70 71 72 
 73 74 75 76 77 78 79 80 81 82 83 84 
 85 86 87 88 89 90 91 92 93 94 
 43 
 2 5 6 7 8 9 12 15 16 18 20 21 
 27 32 33 34 35 36 38 43 44 45 48 53 
 58 59 62 63 67 74 75 76 77 80 81 85 
 86 88 89 90 92 93 94 
 79 
 1 2 3 4 5 6 7 8 9 10 11 12 
 13 14 16 17 18 19 20 21 22 23 24 25 
 26 27 29 30 32 33 36 37 38 40 41 42 
 43 44 45 46 47 48 50 51 53 54 55 56 
 58 59 60 61 62 63 64 65 66 67 68 69 
 70 72 73 74 76 77 80 81 82 83 85 86 
 87 89 90 91 92 93 94 
 71 
 1 2 5 6 7 8 10 12 13 14 18 19 
 21 22 23 25 26 27 29 31 32 33 35 36 
 37 38 39 40 41 42 43 44 45 46 47 48 
 49 50 51 52 53 54 55 56 57 58 59 60 
 62 63 66 68 69 70 71 72 73 74 75 76 
 80 81 82 84 85 86 88 89 91 93 94 
 72 
 1 2 3 4 6 7 8 9 10 11 12 17 
 18 19 20 21 24 26 27 28 29 32 33 34 
 35 36 37 38 40 41 42 43 44 46 47 49 
 50 51 52 54 55 56 57 58 59 60 61 62 
 63 65 66 67 68 70 72 73 74 76 77 78 
 79 80 81 83 84 85 86 87 88 89 90 94 
 30 
 1 3 8 12 14 18 22 30 32 34 35 36 
 40 41 47 50 51 58 60 64 70 72 75 78 
 86 88 89 90 92 93 
 58 
 2 3 4 6 8 12 14 15 18 19 21 23 
 24 25 27 28 29 30 33 34 37 38 39 40 
 42 43 44 45 48 50 51 54 55 59 60 61 
 62 63 64 65 66 67 69 70 71 72 74 75 
 78 79 80 85 86 87 89 91 92 94 
 54 
 6 8 9 10 13 16 18 19 20 21 22 25 
 26 27 28 29 30 31 33 34 35 36 38 39 
 41 42 43 48 49 50 52 53 58 61 62 63 
 64 66 69 72 73 74 75 76 80 83 84 85 
 87 89 90 91 92 94 
 74 
 2 4 7 9 10 11 12 13 15 18 19 20 
 21 22 23 25 26 27 28 29 35 36 37 38 
 39 40 41 43 44 45 46 47 48 49 50 52 
 53 54 55 56 57 58 59 60 61 62 63 65 
 66 67 68 69 70 72 73 76 77 78 79 80 
 81 82 83 84 85 86 87 88 89 90 91 92 
 93 94 
 82 
 1 2 3 4 6 7 8 9 10 11 12 13 
 14 15 16 17 19 20 21 22 23 25 27 28 
 29 30 31 32 33 34 36 37 38 39 40 41 
 43 44 45 46 47 48 49 50 51 52 53 54 
 55 57 58 59 60 62 63 64 66 67 68 70 
 71 72 73 74 75 76 77 78 79 80 81 82 
 83 84 85 86 88 89 90 91 92 93 
 67 
 1 2 3 4 5 6 7 8 9 13 15 16 
 17 18 20 22 23 24 25 26 27 29 31 32 
 33 34 35 36 38 40 41 42 44 46 49 50 
 51 52 54 55 56 57 58 59 61 63 64 65 
 66 68 69 71 74 76 78 79 80 81 83 84 
 85 86 87 91 92 93 94 
 27 
 5 6 7 12 13 14 15 19 26 28 30 31 
 33 35 36 49 51 52 55 57 59 60 70 84 
 86 91 93 
 59 
 3 7 9 10 11 12 17 18 19 20 23 24 
 26 27 28 31 32 36 37 38 39 40 41 42 
 45 47 48 50 51 52 56 58 60 61 62 64 
 65 66 67 73 74 75 76 77 78 79 81 82 
 83 84 85 86 87 88 89 90 91 92 94 
 70 
 1 2 3 4 5 7 8 10 11 12 13 14 
 15 16 17 18 19 20 21 22 23 24 25 27 
 28 31 32 33 34 35 39 42 43 46 47 48 
 49 50 51 52 53 54 55 57 59 61 62 63 
 64 66 67 68 69 70 73 74 75 78 80 81 
 83 84 85 86 87 89 91 92 93 94 
 35 
 1 6 8 20 21 22 24 26 27 28 29 31 
 32 35 39 40 46 56 57 58 61 63 65 67 
 68 71 72 73 77 80 82 86 91 92 94 
 69 
 1 2 3 4 6 7 8 9 10 11 13 14 
 15 16 17 18 21 22 27 28 29 30 31 33 
 34 35 37 38 39 40 41 42 43 45 46 48 
 49 50 52 53 54 55 57 59 61 62 63 64 
 65 66 67 68 71 72 73 75 76 78 79 80 
 81 82 85 86 87 89 90 93 94 
 76 
 1 2 4 5 6 8 9 11 12 13 14 15 
 18 19 20 21 22 23 24 25 26 27 28 29 
 30 31 32 35 36 37 38 40 41 42 44 45 
 47 48 49 51 52 53 54 55 56 57 58 59 
 60 61 62 64 65 66 67 69 70 71 72 73 
 74 75 76 78 79 80 82 83 85 86 87 89 
 90 91 92 93 
 60 
 2 5 6 8 9 10 11 12 14 15 16 17 
 20 21 22 24 27 29 30 32 33 34 36 37 
 39 40 42 43 44 46 48 52 54 55 57 59 
 60 62 65 68 69 70 72 73 74 75 77 78 
 81 82 83 84 85 87 88 89 90 91 92 93 
 24 
 4 9 10 17 21 22 37 42 43 45 48 49 
 54 56 57 59 65 69 77 84 85 86 87 91 
 58 
 3 7 8 9 10 11 12 14 18 20 21 23 
 25 29 30 32 34 35 38 39 40 41 42 43 
 44 45 46 47 48 49 50 52 53 55 57 62 
 63 64 65 67 68 71 72 73 76 77 78 79 
 80 82 84 86 87 90 91 92 93 94 
 32 
 8 11 16 17 18 20 21 22 26 29 30 31 
 33 34 35 39 43 45 46 47 50 60 66 68 
 72 73 76 77 80 85 86 90 
 73 
 1 5 6 7 8 10 11 12 13 14 15 16 
 17 19 20 21 22 23 24 25 26 27 28 29 
 30 31 32 33 34 35 36 37 38 39 40 42 
 43 45 47 48 49 50 51 52 55 59 60 62 
 63 64 65 67 68 69 72 73 74 75 77 78 
 79 80 81 84 85 86 87 88 89 90 92 93 
 94 
 34 
 10 12 21 22 23 27 33 39 42 43 44 48 
 49 50 51 53 61 63 64 65 66 67 70 72 
 73 76 77 79 80 81 82 85 87 94 
 61 
 3 7 8 9 10 11 12 13 14 15 16 18 
 21 23 24 26 27 28 29 30 31 32 33 34 
 36 38 39 40 41 43 44 45 46 47 49 50 
 54 55 57 58 60 61 62 65 67 68 71 72 
 73 76 77 79 81 82 83 84 87 90 91 93 
 94 
 24 
 2 15 18 22 27 33 38 40 41 44 45 50 
 52 55 60 65 66 67 68 71 72 78 87 88 
 9 
 14 27 35 36 40 46 56 80 82 
 43 
 2 5 6 7 9 10 12 16 20 27 29 30 
 34 35 39 40 45 47 48 49 50 53 55 56 
 57 61 63 64 65 66 67 68 74 76 79 84 
 85 86 87 91 92 93 94 
 6 
 12 15 51 53 71 87 
 56 
 1 4 5 6 7 8 10 11 14 15 17 18 
 20 21 22 25 28 29 31 33 37 38 41 42 
 47 48 49 50 52 53 54 55 58 59 60 63 
 65 66 69 70 71 73 74 75 76 77 78 79 
 80 81 84 88 90 91 92 94 
 19 
 2 13 14 16 19 21 24 30 31 40 42 43 
 49 58 63 76 78 81 86 
 71 
 1 5 9 10 11 13 14 15 16 19 20 21 
 22 23 24 25 26 27 28 29 30 31 33 34 
 36 38 39 40 41 42 43 44 45 46 47 49 
 52 53 54 55 56 57 58 59 60 61 62 63 
 64 65 66 67 68 70 71 72 73 75 76 77 
 79 80 82 85 87 88 89 90 92 93 94 
 37 
 1 2 4 7 8 12 15 16 18 20 24 26 
 30 40 42 43 46 51 58 59 60 61 63 65 
 66 67 70 72 73 74 75 76 79 80 81 83 
 94 
 65 
 3 5 6 7 8 9 14 15 17 20 25 26 
 29 31 32 33 34 35 36 38 39 40 41 42 
 43 44 45 46 47 48 49 50 51 52 53 54 
 55 56 57 58 61 62 63 65 66 67 68 69 
 70 71 75 76 77 78 79 81 84 85 86 87 
 88 91 92 93 94 
 12 
 1 6 20 23 31 44 47 51 59 65 79 81 
 42 
 6 7 8 9 14 17 19 20 22 23 25 28 
 34 35 36 37 38 41 45 49 51 53 54 58 
 59 60 61 62 67 73 74 77 78 79 81 82 
 85 86 87 89 92 93 
 90 
 1 2 3 4 5 6 7 8 9 10 11 12 
 13 14 15 16 17 18 19 20 21 22 23 24 
 25 26 27 28 29 30 31 32 33 34 35 36 
 37 38 39 40 41 42 43 44 45 46 48 50 
 51 52 53 54 55 56 57 58 59 60 61 62 
 64 65 66 67 68 69 70 71 72 73 74 75 
 76 77 78 79 80 81 82 83 84 86 87 88 
 89 90 91 92 93 94 
 2 
 34 77 
 78 
 2 5 6 7 8 10 11 13 14 15 16 17 
 18 19 20 21 22 23 24 25 26 27 28 30 
 31 32 33 34 35 37 38 39 40 41 42 43 
 44 46 47 48 49 50 51 52 53 54 55 56 
 57 58 59 60 61 62 63 64 65 66 67 68 
 69 70 73 75 77 78 80 83 84 85 86 87 
 88 89 90 91 93 94 
 12 
 1 7 23 27 28 35 44 54 65 73 74 75 
 45 
 6 7 8 11 15 17 18 21 22 23 24 26 
 29 30 31 32 37 38 43 44 45 47 48 50 
 52 54 55 58 60 61 63 65 67 71 75 76 
 79 80 81 83 85 90 91 92 94 
 73 
 1 5 6 7 8 9 10 11 13 14 15 16 
 18 19 20 21 22 23 24 25 26 28 29 31 
 33 34 35 39 40 41 42 43 45 46 47 48 
 49 50 51 52 53 54 55 56 58 59 60 61 
 62 63 66 67 68 69 70 71 72 74 75 76 
 78 83 84 85 86 87 88 89 90 91 92 93 
 94 
 93 
 1 2 3 4 5 6 7 8 9 10 11 12 
 13 14 15 16 17 18 19 20 21 22 23 24 
 25 26 27 28 29 30 31 32 33 34 35 36 
 37 38 39 40 41 42 43 44 45 46 47 48 
 49 50 51 52 53 54 55 56 57 58 59 60 
 61 62 63 64 65 66 67 68 69 70 71 72 
 73 74 75 76 78 79 80 81 82 83 84 85 
 86 87 88 89 90 91 92 93 94 
 45 
 1 2 5 7 8 9 10 13 15 16 17 19 
 20 24 26 28 32 33 35 36 37 38 42 46 
 49 50 51 53 54 57 59 60 65 69 71 72 
 74 77 78 82 86 88 90 92 93 
 59 
 3 4 5 6 7 8 9 10 13 14 16 17 
 19 20 21 23 25 26 27 28 29 30 31 34 
 35 37 39 42 43 44 47 48 49 53 54 55 
 56 57 58 59 61 64 65 66 67 68 71 72 
 75 78 79 82 84 86 87 89 91 93 94 
 23 
 4 11 16 18 24 25 38 46 47 49 50 53 
 58 62 63 65 67 68 71 72 75 78 81 
 37 
 3 5 8 9 13 14 18 20 23 27 32 34 
 36 38 42 45 46 48 54 56 60 62 63 65 
 68 70 71 75 78 79 82 83 84 86 87 91 
 94 
 47 
 1 3 4 5 8 9 16 17 21 22 24 26 
 27 29 33 34 35 36 37 38 39 40 42 43 
 45 46 49 51 53 62 63 65 66 68 69 71 
 75 78 82 84 85 87 88 89 90 92 94 
 